benchmark_instances/dzn_benchmark_instances/benchmark_instance_12-2.dzn
% Input: sequence of points
seq_points = [|9,1
              |10,1
              |2,2
              |3,2
              |6,2
              |9,2
              |2,3
              |3,3
              |6,3
              |8,3
              |10,3
              |1,4
              |2,4
              |5,4
              |6,4
              |8,4
              |1,5
              |2,5
              |4,5
              |5,5
              |6,5
              |10,5
              |2,6
              |4,6
              |4,7
              |9,7
              |2,8
              |3,8
              |9,8
              |10,8
              |3,9
              |4,9
              |12,0
              |12,12
              |0,3
              |0,4
              |0,12
              |0,0
             |];

num_points = 38;
