benchmark_instances/lp_benchmark_instances/benchmark_instance_12-2.lp
% Input: sequence of points
point(9,1).
point(10,1).
point(2,2).
point(3,2).
point(6,2).
point(9,2).
point(2,3).
point(3,3).
point(6,3).
point(8,3).
point(10,3).
point(1,4).
point(2,4).
point(5,4).
point(6,4).
point(8,4).
point(1,5).
point(2,5).
point(4,5).
point(5,5).
point(6,5).
point(10,5).
point(2,6).
point(4,6).
point(4,7).
point(9,7).
point(2,8).
point(3,8).
point(9,8).
point(10,8).
point(3,9).
point(4,9).
point(12,0).
point(12,12).
point(0,3).
point(0,4).
point(0,12).
point(0,0).
